\ENCODING=ISO-8859-1
\Problem name: IloCplex

Minimize
 obj: c + x2
Subject To
 c1:  c - 2 x(2)(3) >= 0
 c2:  c - 2 x(1)(1) >= 0
 c3:  c - 2 x(1)(1) - 2 x(1)(3) - 2 x(2)(2) >= 0
 c4:  c >= 0
 c5:  c - 2 x(1)(2) - 2 x(1)(3) - 2 x(2)(3) >= 0
 c6:  c >= 0
 c7:  c - 2 x(1)(2) >= 0
 c8:  c - 2 x(2)(2) >= 0
 c9:  c - 2 x(2)(1) >= 0
 c10: c - 2 x(1)(3) >= 0
 c11: x(1)(1) + x(1)(2) + x(1)(3)  = 1
 c12: x(2)(1) + x(2)(2) + x(2)(3)  = 1
Bounds
      c >= 0
      x2 = 0
 0 <= x(1)(1) <= 1
 0 <= x(1)(2) <= 1
 0 <= x(1)(3) <= 1
 0 <= x(2)(1) <= 1
 0 <= x(2)(2) <= 1
 0 <= x(2)(3) <= 1
Binaries
 x(1)(1)  x(1)(2)  x(1)(3)  x(2)(1)  x(2)(2)  x(2)(3) 
Generals
 c 
End
